p cnf 12 50 
-4 -8 11 0
-4 -6 -3 0
-10 -3 9 0
-6 8 -12 0
-7 11 -8 0
-7 8 -5 0
10 6 -8 0
6 2 4 0
1 -8 3 0
7 5 -12 0
7 5 1 0
8 -3 -11 0
-3 4 7 0
-1 2 -5 0
-6 12 8 0
8 6 -3 0
7 2 -4 0
-1 -6 11 0
-1 -3 7 0
-5 11 6 0
6 4 5 0
2 -3 9 0
11 9 1 0
11 -2 7 0
-11 5 6 0
8 -5 -3 0
-8 -4 5 0
-9 7 -5 0
-1 -6 10 0
-8 -5 7 0
5 2 -8 0
4 12 10 0
11 9 -12 0
-1 -12 -3 0
7 12 -5 0
1 -6 8 0
-11 -10 6 0
-12 -10 -5 0
11 10 9 0
7 -5 9 0
3 1 -12 0
-3 -7 11 0
-5 1 -6 0
2 -10 4 0
4 -9 5 0
9 -5 7 0
2 -12 -9 0
-9 3 12 0
6 -8 -10 0
1 11 -4 0
